NAME: CMT2_4
TYPE: CVRP
COMMENT: 835.26 - Cluster Nr.4
DIMENSION: 8
CAPACITY: 140
EDGE_WEIGHT_TYPE: EUC_2D
NODE_COORD_TYPE: TWOD_COORDS
NODE_COORD_SECTION: 
8 41 46
3 30 50
6 45 42
4 35 51
2 33 44
7 29 39
1 35 60
5 40 40
DEPOT_SECTION: 
5
-1
DEMAND_SECTION: 
7 12
6 30
2 20
1 1
8 18
4 16
5 0
3 33
EOF
